NAME: map7_480
TYPE: TSP
COMMENT: autogenerated using a wonderful map creator
DIMENSION: 600
EDGE_WEIGHT_TYPE: EUC_2D
NODE_COORD_SECTION
1 1.0 5.0
2 1.0 4.0
3 4.0 5.0
4 4.0 4.0
5 7.0 5.0
6 7.0 4.0
7 10.0 5.0
8 10.0 4.0
9 13.0 5.0
10 13.0 4.0
11 16.0 5.0
12 16.0 4.0
13 19.0 5.0
14 19.0 4.0
15 22.0 5.0
16 22.0 4.0
17 25.0 5.0
18 25.0 4.0
19 28.0 5.0
20 28.0 4.0
21 31.0 5.0
22 31.0 4.0
23 34.0 5.0
24 34.0 4.0
25 37.0 5.0
26 37.0 4.0
27 40.0 5.0
28 40.0 4.0
29 43.0 5.0
30 43.0 4.0
31 1.0 95.0
32 1.0 96.0
33 4.0 95.0
34 4.0 96.0
35 7.0 95.0
36 7.0 96.0
37 10.0 95.0
38 10.0 96.0
39 13.0 95.0
40 13.0 96.0
41 16.0 95.0
42 16.0 96.0
43 19.0 95.0
44 19.0 96.0
45 22.0 95.0
46 22.0 96.0
47 25.0 95.0
48 25.0 96.0
49 28.0 95.0
50 28.0 96.0
51 31.0 95.0
52 31.0 96.0
53 34.0 95.0
54 34.0 96.0
55 37.0 95.0
56 37.0 96.0
57 40.0 95.0
58 40.0 96.0
59 43.0 95.0
60 43.0 96.0
61 1.0 3.0
62 4.0 97.0
63 7.0 3.0
64 10.0 97.0
65 13.0 3.0
66 16.0 97.0
67 19.0 3.0
68 22.0 97.0
69 25.0 3.0
70 28.0 97.0
71 31.0 3.0
72 34.0 97.0
73 37.0 3.0
74 40.0 97.0
75 43.0 3.0
76 1.0 2.0
77 4.0 98.0
78 7.0 2.0
79 10.0 98.0
80 13.0 2.0
81 16.0 98.0
82 19.0 2.0
83 22.0 98.0
84 25.0 2.0
85 28.0 98.0
86 31.0 2.0
87 34.0 98.0
88 37.0 2.0
89 40.0 98.0
90 43.0 2.0
91 1.0 97.0
92 4.0 3.0
93 7.0 97.0
94 10.0 3.0
95 13.0 97.0
96 16.0 3.0
97 19.0 97.0
98 22.0 3.0
99 25.0 97.0
100 28.0 3.0
101 31.0 97.0
102 34.0 3.0
103 37.0 97.0
104 40.0 3.0
105 43.0 97.0
106 1.0 98.0
107 4.0 2.0
108 7.0 98.0
109 10.0 2.0
110 13.0 98.0
111 16.0 2.0
112 19.0 98.0
113 22.0 2.0
114 25.0 98.0
115 28.0 2.0
116 31.0 98.0
117 34.0 2.0
118 37.0 98.0
119 40.0 2.0
120 43.0 98.0
121 2.0 95.0
122 2.0 96.0
123 5.0 95.0
124 5.0 96.0
125 8.0 95.0
126 8.0 96.0
127 11.0 95.0
128 11.0 96.0
129 14.0 95.0
130 14.0 96.0
131 17.0 95.0
132 17.0 96.0
133 20.0 95.0
134 20.0 96.0
135 23.0 95.0
136 23.0 96.0
137 26.0 95.0
138 26.0 96.0
139 29.0 95.0
140 29.0 96.0
141 32.0 95.0
142 32.0 96.0
143 35.0 95.0
144 35.0 96.0
145 38.0 95.0
146 38.0 96.0
147 41.0 95.0
148 41.0 96.0
149 44.0 95.0
150 44.0 96.0
151 2.0 5.0
152 2.0 4.0
153 5.0 5.0
154 5.0 4.0
155 8.0 5.0
156 8.0 4.0
157 11.0 5.0
158 11.0 4.0
159 14.0 5.0
160 14.0 4.0
161 17.0 5.0
162 17.0 4.0
163 20.0 5.0
164 20.0 4.0
165 23.0 5.0
166 23.0 4.0
167 26.0 5.0
168 26.0 4.0
169 29.0 5.0
170 29.0 4.0
171 32.0 5.0
172 32.0 4.0
173 35.0 5.0
174 35.0 4.0
175 38.0 5.0
176 38.0 4.0
177 41.0 5.0
178 41.0 4.0
179 44.0 5.0
180 44.0 4.0
181 2.0 97.0
182 5.0 3.0
183 8.0 97.0
184 11.0 3.0
185 14.0 97.0
186 17.0 3.0
187 20.0 97.0
188 23.0 3.0
189 26.0 97.0
190 29.0 3.0
191 32.0 97.0
192 35.0 3.0
193 38.0 97.0
194 41.0 3.0
195 44.0 97.0
196 2.0 98.0
197 5.0 2.0
198 8.0 98.0
199 11.0 2.0
200 14.0 98.0
201 17.0 2.0
202 20.0 98.0
203 23.0 2.0
204 26.0 98.0
205 29.0 2.0
206 32.0 98.0
207 35.0 2.0
208 38.0 98.0
209 41.0 2.0
210 44.0 98.0
211 2.0 3.0
212 5.0 97.0
213 8.0 3.0
214 11.0 97.0
215 14.0 3.0
216 17.0 97.0
217 20.0 3.0
218 23.0 97.0
219 26.0 3.0
220 29.0 97.0
221 32.0 3.0
222 35.0 97.0
223 38.0 3.0
224 41.0 97.0
225 44.0 3.0
226 2.0 2.0
227 5.0 98.0
228 8.0 2.0
229 11.0 98.0
230 14.0 2.0
231 17.0 98.0
232 20.0 2.0
233 23.0 98.0
234 26.0 2.0
235 29.0 98.0
236 32.0 2.0
237 35.0 98.0
238 38.0 2.0
239 41.0 98.0
240 44.0 2.0
241 1.0 86.0
242 28.0 58.0
243 28.0 67.0
244 19.0 9.0
245 19.0 18.0
246 40.0 50.0
247 29.0 50.0
248 40.0 59.0
249 25.0 43.0
250 22.0 19.0
251 22.0 28.0
252 4.0 87.0
253 43.0 78.0
254 1.0 72.0
255 13.0 74.0
256 43.0 87.0
257 13.0 83.0
258 28.0 80.0
259 40.0 45.0
260 40.0 54.0
261 21.0 50.0
262 40.0 63.0
263 10.0 22.0
264 10.0 31.0
265 20.0 72.0
266 31.0 72.0
267 34.0 16.0
268 31.0 81.0
269 10.0 58.0
270 34.0 25.0
271 22.0 32.0
272 13.0 51.0
273 14.0 28.0
274 43.0 64.0
275 13.0 60.0
276 43.0 73.0
277 16.0 74.0
278 17.0 39.0
279 28.0 39.0
280 7.0 16.0
281 16.0 83.0
282 28.0 66.0
283 40.0 49.0
284 25.0 15.0
285 10.0 35.0
286 25.0 33.0
287 31.0 67.0
288 25.0 42.0
289 31.0 76.0
290 23.0 72.0
291 12.0 72.0
292 37.0 16.0
293 4.0 68.0
294 22.0 27.0
295 13.0 46.0
296 1.0 53.0
297 43.0 77.0
298 16.0 60.0
299 13.0 73.0
300 16.0 69.0
301 7.0 11.0
302 40.0 8.0
303 1.0 89.0
304 42.0 72.0
305 10.0 12.0
306 19.0 79.0
307 25.0 10.0
308 25.0 19.0
309 31.0 53.0
310 10.0 30.0
311 4.0 63.0
312 31.0 89.0
313 1.0 48.0
314 35.0 50.0
315 16.0 46.0
316 4.0 90.0
317 13.0 68.0
318 16.0 64.0
319 28.0 29.0
320 1.0 84.0
321 40.0 30.0
322 6.0 28.0
323 7.0 91.0
324 19.0 74.0
325 10.0 16.0
326 8.0 83.0
327 19.0 92.0
328 43.0 22.0
329 13.0 27.0
330 4.0 58.0
331 1.0 34.0
332 4.0 67.0
333 4.0 76.0
334 34.0 77.0
335 34.0 86.0
336 28.0 15.0
337 1.0 61.0
338 13.0 63.0
339 37.0 82.0
340 16.0 59.0
341 15.0 72.0
342 26.0 72.0
343 38.0 83.0
344 40.0 25.0
345 19.0 69.0
346 31.0 34.0
347 19.0 78.0
348 25.0 9.0
349 31.0 52.0
350 32.0 17.0
351 43.0 17.0
352 20.0 61.0
353 1.0 29.0
354 1.0 38.0
355 43.0 53.0
356 16.0 54.0
357 34.0 90.0
358 28.0 28.0
359 17.0 28.0
360 7.0 63.0
361 7.0 72.0
362 18.0 72.0
363 27.0 50.0
364 7.0 81.0
365 31.0 29.0
366 31.0 38.0
367 31.0 47.0
368 13.0 8.0
369 13.0 17.0
370 4.0 48.0
371 23.0 61.0
372 1.0 24.0
373 10.0 91.0
374 34.0 58.0
375 4.0 57.0
376 25.0 89.0
377 22.0 83.0
378 28.0 14.0
379 16.0 49.0
380 9.0 28.0
381 5.0 39.0
382 7.0 58.0
383 19.0 32.0
384 19.0 41.0
385 7.0 85.0
386 40.0 91.0
387 4.0 34.0
388 41.0 83.0
389 1.0 28.0
390 34.0 62.0
391 16.0 26.0
392 1.0 37.0
393 37.0 58.0
394 22.0 69.0
395 1.0 46.0
396 37.0 67.0
397 22.0 78.0
398 34.0 89.0
399 22.0 87.0
400 37.0 85.0
401 38.0 50.0
402 19.0 45.0
403 31.0 10.0
404 40.0 86.0
405 20.0 28.0
406 4.0 11.0
407 31.0 37.0
408 4.0 20.0
409 10.0 72.0
410 43.0 20.0
411 1.0 14.0
412 4.0 47.0
413 16.0 12.0
414 33.0 83.0
415 25.0 79.0
416 10.0 90.0
417 22.0 55.0
418 25.0 88.0
419 22.0 82.0
420 37.0 80.0
421 22.0 91.0
422 7.0 39.0
423 15.0 61.0
424 7.0 66.0
425 19.0 31.0
426 40.0 81.0
427 31.0 23.0
428 40.0 90.0
429 31.0 32.0
430 12.0 28.0
431 25.0 56.0
432 13.0 11.0
433 25.0 65.0
434 10.0 85.0
435 22.0 50.0
436 25.0 92.0
437 37.0 57.0
438 19.0 17.0
439 8.0 17.0
440 28.0 84.0
441 7.0 61.0
442 42.0 28.0
443 18.0 61.0
444 27.0 39.0
445 31.0 18.0
446 40.0 85.0
447 4.0 10.0
448 10.0 53.0
449 10.0 62.0
450 34.0 29.0
451 34.0 38.0
452 22.0 45.0
453 25.0 78.0
454 22.0 54.0
455 37.0 52.0
456 38.0 17.0
457 22.0 72.0
458 28.0 70.0
459 19.0 12.0
460 19.0 30.0
461 31.0 13.0
462 40.0 80.0
463 40.0 89.0
464 33.0 50.0
465 10.0 48.0
466 10.0 57.0
467 25.0 64.0
468 22.0 40.0
469 34.0 42.0
470 37.0 38.0
471 34.0 51.0
472 13.0 77.0
473 13.0 86.0
474 7.0 24.0
475 16.0 91.0
476 28.0 65.0
477 7.0 42.0
478 29.0 39.0
479 19.0 16.0
480 17.0 83.0
481 28.0 83.0
482 40.0 57.0
483 25.0 23.0
484 10.0 34.0
485 10.0 43.0
486 37.0 24.0
487 22.0 35.0
488 13.0 72.0
489 1.0 79.0
490 13.0 90.0
491 1.0 88.0
492 28.0 51.0
493 18.0 28.0
494 28.0 60.0
495 19.0 11.0
496 28.0 87.0
497 9.0 83.0
498 10.0 20.0
499 25.0 27.0
500 10.0 38.0
501 34.0 14.0
502 25.0 54.0
503 3.0 17.0
504 43.0 62.0
505 13.0 58.0
506 4.0 89.0
507 43.0 71.0
508 16.0 63.0
509 43.0 89.0
510 13.0 85.0
511 36.0 50.0
512 16.0 81.0
513 7.0 23.0
514 40.0 20.0
515 40.0 29.0
516 28.0 82.0
517 21.0 61.0
518 10.0 24.0
519 19.0 91.0
520 25.0 22.0
521 10.0 33.0
522 25.0 31.0
523 34.0 9.0
524 34.0 18.0
525 43.0 48.0
526 31.0 92.0
527 4.0 75.0
528 43.0 57.0
529 13.0 53.0
530 16.0 67.0
531 7.0 9.0
532 13.0 89.0
533 16.0 85.0
534 28.0 50.0
535 28.0 59.0
536 19.0 77.0
537 25.0 8.0
538 19.0 86.0
539 10.0 28.0
540 10.0 37.0
541 25.0 35.0
542 31.0 87.0
543 43.0 52.0
544 12.0 83.0
545 4.0 79.0
546 1.0 55.0
547 1.0 64.0
548 28.0 36.0
549 28.0 45.0
550 40.0 10.0
551 6.0 17.0
552 28.0 63.0
553 40.0 28.0
554 40.0 37.0
555 30.0 72.0
556 8.0 72.0
557 19.0 72.0
558 39.0 50.0
559 19.0 81.0
560 25.0 12.0
561 10.0 23.0
562 10.0 32.0
563 31.0 64.0
564 13.0 25.0
565 43.0 38.0
566 4.0 65.0
567 43.0 56.0
568 13.0 61.0
569 28.0 40.0
570 40.0 32.0
571 21.0 28.0
572 19.0 67.0
573 10.0 9.0
574 11.0 72.0
575 10.0 18.0
576 19.0 85.0
577 25.0 16.0
578 20.0 50.0
579 43.0 15.0
580 31.0 59.0
581 39.0 72.0
582 31.0 68.0
583 13.0 29.0
584 4.0 60.0
585 43.0 42.0
586 16.0 25.0
587 4.0 69.0
588 43.0 51.0
589 1.0 45.0
590 13.0 47.0
591 34.0 79.0
592 37.0 84.0
593 28.0 26.0
594 40.0 18.0
595 7.0 70.0
596 7.0 88.0
597 19.0 71.0
598 43.0 10.0
599 43.0 28.0
600 4.0 46.0
601 1.0 22.0
602 1.0 31.0
603 16.0 29.0
604 1.0 40.0
605 1.0 49.0
606 22.0 81.0
607 34.0 83.0
608 1.0 58.0
609 34.0 92.0
610 7.0 74.0
611 19.0 48.0
612 19.0 57.0
613 31.0 31.0
614 4.0 23.0
615 41.0 72.0
616 31.0 58.0
617 43.0 23.0
618 4.0 41.0
619 13.0 19.0
620 43.0 32.0
621 16.0 15.0
622 24.0 28.0
623 13.0 28.0
624 4.0 59.0
625 34.0 60.0
626 34.0 69.0
627 16.0 33.0
628 37.0 65.0
629 34.0 78.0
630 37.0 83.0
631 37.0 92.0
632 7.0 60.0
633 7.0 69.0
634 19.0 52.0
635 20.0 17.0
636 31.0 17.0
637 30.0 61.0
638 31.0 35.0
639 33.0 72.0
640 25.0 68.0
641 13.0 14.0
642 1.0 21.0
643 13.0 23.0
644 16.0 19.0
645 34.0 55.0
646 25.0 86.0
647 34.0 73.0
648 22.0 71.0
649 37.0 69.0
650 34.0 82.0
651 28.0 11.0
652 37.0 87.0
653 26.0 50.0
654 19.0 20.0
655 7.0 64.0
656 19.0 29.0
657 19.0 38.0
658 7.0 82.0
659 31.0 21.0
660 12.0 17.0
661 31.0 39.0
662 34.0 32.0
663 25.0 63.0
664 4.0 40.0
665 34.0 41.0
666 1.0 16.0
667 34.0 50.0
668 1.0 25.0
669 34.0 59.0
670 37.0 55.0
671 27.0 28.0
672 19.0 24.0
673 7.0 68.0
674 40.0 74.0
675 40.0 83.0
676 31.0 25.0
677 4.0 17.0
678 25.0 49.0
679 4.0 26.0
680 25.0 58.0
681 22.0 34.0
682 37.0 32.0
683 25.0 76.0
684 14.0 39.0
685 22.0 52.0
686 25.0 85.0
687 37.0 50.0
688 22.0 70.0
689 7.0 54.0
690 19.0 19.0
691 31.0 11.0
692 40.0 78.0
693 4.0 12.0
694 34.0 13.0
695 4.0 21.0
696 34.0 22.0
697 10.0 64.0
698 34.0 31.0
699 37.0 27.0
700 34.0 49.0
701 26.0 17.0
702 22.0 65.0
703 7.0 31.0
704 28.0 72.0
705 17.0 72.0
706 7.0 49.0
707 40.0 46.0
708 28.0 90.0
709 40.0 64.0
710 11.0 28.0
711 25.0 30.0
712 10.0 41.0
713 25.0 48.0
714 37.0 13.0
715 33.0 61.0
716 10.0 68.0
717 34.0 35.0
718 37.0 31.0
719 10.0 77.0
720 13.0 79.0
START_DEPOT_SECTION
1
2
3
4
5
6
7
8
9
10
11
12
13
14
15
16
17
18
19
20
21
22
23
24
25
26
27
28
29
30
31
32
33
34
35
36
37
38
39
40
41
42
43
44
45
46
47
48
49
50
51
52
53
54
55
56
57
58
59
60
61
62
63
64
65
66
67
68
69
70
71
72
73
74
75
76
77
78
79
80
81
82
83
84
85
86
87
88
89
90
91
92
93
94
95
96
97
98
99
100
101
102
103
104
105
106
107
108
109
110
111
112
113
114
115
116
117
118
119
120
-1
END_DEPOT_SECTION
121
122
123
124
125
126
127
128
129
130
131
132
133
134
135
136
137
138
139
140
141
142
143
144
145
146
147
148
149
150
151
152
153
154
155
156
157
158
159
160
161
162
163
164
165
166
167
168
169
170
171
172
173
174
175
176
177
178
179
180
181
182
183
184
185
186
187
188
189
190
191
192
193
194
195
196
197
198
199
200
201
202
203
204
205
206
207
208
209
210
211
212
213
214
215
216
217
218
219
220
221
222
223
224
225
226
227
228
229
230
231
232
233
234
235
236
237
238
239
240
-1
EOF
